&control
    calculation='vc-relax'
    restart_mode='from_scratch',
    pseudo_dir = '/home/aritz/pseudo/',
    outdir='/home/aritz/tmp/',
    prefix='Na'
    tprnfor = .true.
    tstress = .true.
 /
 &system
        ibrav = 3, 
    celldm(1) = 7.0, 
          nat = 1, 
         ntyp = 1,  
      ecutwfc = 25.0,
  occupations = 'smearing', 
     smearing = 'marzari-vanderbilt', 
      degauss = 0.05
 /
 &electrons
    mixing_beta = 0.6,
    conv_thr=1.0d-7
 /
 &ions
 /
 &cell
 /
ATOMIC_SPECIES
 Na  22.98 Na.pw-mt_fhi.UPF
ATOMIC_POSITIONS
 Na 0.00 0.00 0.00 0 0 0
K_POINTS automatic
20 20 20 0 0 0

