&control
    calculation = 'scf',
    verbosity = 'high',
    tprnfor = .true.
    prefix = 'Si_exc1',
    outdir = '../tmp/'
    pseudo_dir = '../pseudo/'
/
&system
    ibrav = 0, nat = 16, ntyp = 1, ecutwfc = 25
/
&electrons
    conv_thr = 1.0D-7,
/
K_POINTS (automatic)
5 5 5 1 1 1

!    ibrav = 0, nat = 16, ntyp = 1
CELL_PARAMETERS bohr
  -10.3459122143423041    0.0000000000000000   10.3459122143423041
    0.0000000000000000   10.3459122143423041   10.3459122143423041
  -10.3459122143423041   10.3459122143423041    0.0000000000000000
ATOMIC_SPECIES
 Si   28.08550   Si.pbe-rrkj.UPF
ATOMIC_POSITIONS crystal
 Si   0.0013669297912780  0.0000000000000000  0.0000000000000000
 Si   0.5000000000000000  0.0000000000000000  0.0000000000000000
 Si   0.0000000000000000  0.5000000000000000  0.0000000000000000
 Si   0.5000000000000000  0.5000000000000000  0.0000000000000000
 Si   0.0000000000000000  0.0000000000000000  0.5000000000000001
 Si   0.5000000000000000  0.0000000000000000  0.5000000000000001
 Si   0.0000000000000000  0.5000000000000000  0.5000000000000001
 Si   0.5000000000000000  0.5000000000000001  0.5000000000000001
 Si   0.3750000000000000  0.3750000000000000  0.3750000000000001
 Si   0.8750000000000001  0.3750000000000000  0.3750000000000001
 Si   0.3750000000000000  0.8750000000000001  0.3750000000000001
 Si   0.8750000000000001  0.8750000000000000  0.3750000000000001
 Si   0.3750000000000001  0.3750000000000000  0.8750000000000001
 Si   0.8750000000000000  0.3750000000000002  0.8750000000000003
 Si   0.3750000000000002  0.8750000000000000  0.8750000000000001
 Si   0.8750000000000000  0.8750000000000001  0.8750000000000002