 &control
    calculation = 'scf',
    prefix = 'Si_exc1',
    outdir = '../tmp/'
    pseudo_dir = '../pseudo/'
 /
 &system
    ibrav =  0,
    nat =  2, 
    ntyp = 1,
    ecutwfc = 25
 /
 &electrons
    mixing_beta = 0.6
 /
CELL_PARAMETERS bohr
  -5.173006808  -0.000000000   5.173006808
  -0.000000000   5.173006808   5.173006808
  -5.173006808   5.173006808   0.000000000
ATOMIC_SPECIES
 Si 28.086  Si.pbe-rrkj.UPF
ATOMIC_POSITIONS crystal
 Si 0.0 0.0 0.0
 Si 0.75 0.75 0.75
K_POINTS (automatic)
10 10 10 1 1 1



