&control
    calculation = 'scf',
    verbosity = 'high',
    forc_conv_thr = 1.0D-4,
    tprnfor = .true.
    prefix = 'Si_exc1',
    outdir = '../tmp/'
    pseudo_dir = '../pseudo/'
/
&system
    ibrav =  0,
    nat =  2,
    ntyp = 1,
    ecutwfc = 25
    celldm(1)=10.26121290
/
&electrons
    conv_thr = 1.0D-7,
/
&ions
/
ATOMIC_SPECIES
 Si 28.086  Si.pbe-rrkj.UPF

CELL_PARAMETERS alat (alat= 10.26121290)
  -0.504127159   0.000000000   0.504127159
  -0.000000000   0.504127159   0.504127159
  -0.504127159   0.504127159   0.000000000

ATOMIC_POSITIONS (crystal)
Si            0.0000000000       -0.0000000000       -0.0000000000
Si            0.7500000000        0.7500000000        0.7500000000

K_POINTS (automatic)
10 10 10 1 1 1

