 &control
    calculation = 'vc-relax',
    forc_conv_thr = 1.0D-4,
    etot_conv_thr = 1.0D-5,
    prefix = 'Si_exc1',
    outdir = '../tmp/'
    pseudo_dir = '../pseudo/'
 /
 &system
    ibrav =  2,
    celldm(1)=10.26121290 
    nat =  2, 
    ntyp = 1,
    ecutwfc = 25
 /
 &electrons
    conv_thr = 1.0D-7,
    mixing_beta = 0.6
 /
 &ions
/
&cell
/
ATOMIC_SPECIES
 Si 28.086  Si.pbe-rrkj.UPF
ATOMIC_POSITIONS crystal
 Si 0.0 0.0 0.0
 Si 0.75 0.75 0.75
K_POINTS (automatic)
10 10 10 1 1 1
