 &control
    calculation = 'scf',
    verbosity='high'
    tprnfor=.TRUE.
    prefix = 'Si_exc1',
    outdir = '/home/aritzleo/TOPICS/TEMP/'
    pseudo_dir = '/home/aritzleo/TOPICS/PSEUDO/'
 /
 &system
    ibrav =  0,
    nat =  16, 
    ntyp = 1,
    ecutwfc = 20
 /
 &electrons
    conv_thr = 1.0D-7
 /
K_POINTS (automatic)
5 5 5 1 1 1
