&CONTROL
    calculation = 'scf',
    verbosity = 'high',
    forc_conv_thr = 1.0D-4,
    tprnfor = .true.
    prefix = 'GaN_exc1',
    outdir = '../tmp/'
    pseudo_dir = '../pseudo/'
 /
&SYSTEM
    ibrav =  0,
    celldm(1) = 6.028226348,
    celldm(3) = 1.62696,
    nat = 4,
    ntyp = 2,
    ecutwfc = 150,
/
&ELECTRONS
    conv_thr = 1.0e-8,
    mixing_beta = 0.7
/
&IONS
/
&CELL
/
ATOMIC_SPECIES
 Ga 69.723  Ga_ONCV_PBE_sr.upf
 N  14.007  N_ONCV_PBE_sr.upf

CELL_PARAMETERS alat (alat=  6.02822635)
   1.009155832   0.000000000   0.000000000
  -0.504577916   0.873954587  -0.000000000
  -0.000000000   0.000000000   1.643875172

ATOMIC_POSITIONS (crystal)
Ga            0.6666666667        0.3333333333        0.4991210702
Ga            0.3333333333        0.6666666667        0.9991210702
N             0.6666666667        0.3333333333        0.8758789298
N             0.3333333333        0.6666666667        0.3758789298

K_POINTS automatic
    10 10 10 0 0 0
