&CONTROL
    calculation = 'vc-relax',
    verbosity = 'high',
    prefix = 'GaN_exc1',
    forc_conv_thr = 1.0D-4,
    etot_conv_thr = 1.0D-5,
    outdir = '../tmp/'
    pseudo_dir = '../pseudo/'
 /
&SYSTEM
    ibrav = 4,
    celldm(1) = 6.028226348,
    celldm(3) = 1.62696,
    nat = 4,
    ntyp = 2,
    ecutwfc = 60,
    ecutrho = 240,
/
&ELECTRONS
    conv_thr = 1.0e-8,
    mixing_beta = 0.7
/
&IONS
/
&CELL
/
ATOMIC_SPECIES
 Ga 69.723  Ga_ONCV_PBE_sr.upf
 N  14.007  N_ONCV_PBE_sr.upf

ATOMIC_POSITIONS crystal
    Ga 0.6666666666666666    0.3333333333333333    0.4990837100000000
    Ga 0.3333333333333333    0.6666666666666666    0.9990837100000001
    N  0.6666666666666666    0.3333333333333333    0.8759162900000000
    N  0.3333333333333333    0.6666666666666666    0.3759162900000002

K_POINTS automatic
    6 6 4 0 0 0

