&CONTROL
    calculation = 'scf',
    verbosity = 'high',
    tprnfor = .true.
    prefix = 'GaN_exc1',
    outdir = '../tmp/'
    pseudo_dir = '../pseudo/'
/
&SYSTEM
    ibrav =  0,
    nat = 32,
    ntyp = 2,
    ecutwfc = 150,
/
&ELECTRONS
    conv_thr = 1.0e-8,
    mixing_beta = 0.7
/
K_POINTS automatic
    5 5 5 0 0 0

