!    ibrav = 0, nat = 32, ntyp = 2
CELL_PARAMETERS bohr
   12.1668395514005230    0.0000000000000000    0.0000000000000000
   -6.0834197757002615   10.5367921366177146    0.0000000000000000
    0.0000000000000000    0.0000000000000000   19.8193032493468628
ATOMIC_SPECIES
 Ga   69.72300   Ga_ONCV_PBE_sr.upf
  N   14.00670   N_ONCV_PBE_sr.upf
ATOMIC_POSITIONS crystal
 Ga   0.3333333333499999  0.1666666666500000  0.2495605351000000
 Ga   0.8333333333499999  0.1666666666500000  0.2495605351000000
 Ga   0.3333333333500000  0.6666666666500000  0.2495605351000000
 Ga   0.8333333333499999  0.6666666666500000  0.2495605351000000
 Ga   0.3333333333499999  0.1666666666500000  0.7495605350999999
 Ga   0.8333333333499999  0.1666666666500000  0.7495605350999999
 Ga   0.3333333333500000  0.6666666666500000  0.7495605350999999
 Ga   0.8333333333499999  0.6666666666500000  0.7495605350999999
 Ga   0.1666666666500000  0.3333333333500000  0.4995605351000000
 Ga   0.6666666666499999  0.3333333333500000  0.4995605351000000
 Ga   0.1666666666500000  0.8333333333500000  0.4995605351000000
 Ga   0.6666666666500000  0.8333333333500000  0.4995605351000000
 Ga   0.1666666666500000  0.3333333333500000  0.9995605350999999
 Ga   0.6666666666499999  0.3333333333500000  0.9995605350999999
 Ga   0.1666666666500000  0.8333333333500000  0.9995605350999999
 Ga   0.6666666666500000  0.8333333333500000  0.9995605350999999
  N   0.3324733364374944  0.1666666666500000  0.4370794679874945
  N   0.8333333333499999  0.1666666666500000  0.4379394649000000
  N   0.3333333333500000  0.6666666666500000  0.4379394649000000
  N   0.8333333333499999  0.6666666666500000  0.4379394649000000
  N   0.3333333333499999  0.1666666666500000  0.9379394648999999
  N   0.8333333333499999  0.1666666666500000  0.9379394648999999
  N   0.3333333333500000  0.6666666666500000  0.9379394648999999
  N   0.8333333333499999  0.6666666666500000  0.9379394648999999
  N   0.1666666666500000  0.3333333333500000  0.1879394649000000
  N   0.6666666666499999  0.3333333333500000  0.1879394649000000
  N   0.1666666666500000  0.8333333333500000  0.1879394649000000
  N   0.6666666666500000  0.8333333333500000  0.1879394649000000
  N   0.1666666666500000  0.3333333333500000  0.6879394649000000
  N   0.6666666666499999  0.3333333333500000  0.6879394649000000
  N   0.1666666666500000  0.8333333333500000  0.6879394649000000
  N   0.6666666666500000  0.8333333333500000  0.6879394649000000